750
1000
699
699
699
696
695
694
693
693
693
692
684
683
683
683
682
681
681
680
680
679
679
678
678
678
676
674
673
673
672
672
672
671
669
669
668
667
665
665
664
664
664
664
659
659
658
658
658
657
657
656
655
654
652
652
651
650
650
649
648
648
647
644
642
642
642
642
642
641
641
641
641
640
638
638
638
637
636
636
635
635
634
634
632
630
629
627
627
627
627
627
627
626
625
623
623
622
621
620
618
618
617
617
616
616
616
615
615
614
613
612
611
611
610
610
609
607
607
605
604
604
603
603
601
601
600
600
600
599
596
596
595
595
595
594
594
593
593
592
591
590
587
586
586
585
585
585
583
582
581
580
579
579
579
579
579
577
577
574
573
573
572
572
571
570
569
569
569
565
565
565
564
564
564
563
562
562
562
561
557
555
555
554
553
552
552
551
551
549
548
546
539
539
539
539
538
537
537
536
536
536
535
535
534
532
532
531
527
526
526
523
522
521
519
519
518
516
515
513
513
511
510
510
510
509
509
508
508
507
506
506
506
505
505
504
501
501
499
498
498
496
496
496
495
494
493
491
490
490
490
488
487
487
487
487
487
487
485
482
481
481
480
479
479
478
477
476
476
474
474
474
471
471
470
470
469
469
467
467
467
465
464
464
463
461
460
460
459
459
459
458
458
457
457
457
457
457
456
454
453
453
451
450
449
449
448
448
447
446
445
444
443
443
443
442
441
441
440
440
439
439
439
438
438
437
436
435
435
431
428
428
428
427
426
425
425
422
421
420
418
417
416
415
414
413
413
413
412
412
411
410
410
409
407
406
405
403
402
401
400
398
397
393
392
392
391
391
390
390
389
389
388
388
387
387
386
386
384
384
383
381
381
379
377
376
375
373
373
372
372
371
371
370
368
368
368
368
366
366
366
366
365
364
364
363
363
363
363
363
362
361
361
360
360
360
359
359
356
354
354
354
353
353
352
351
349
349
348
345
345
343
343
343
342
340
340
339
338
337
337
336
336
336
336
335
335
335
334
334
334
332
331
331
330
330
328
328
328
327
327
327
326
326
325
325
325
325
324
324
322
320
320
320
319
318
317
317
317
316
316
315
315
315
313
311
311
310
310
310
310
308
308
307
305
304
303
302
302
301
298
297
296
296
296
293
293
291
288
287
287
287
287
286
285
285
285
284
283
283
281
281
280
279
279
277
276
276
275
275
274
273
272
272
271
271
270
269
269
267
264
264
264
263
263
261
260
259
259
258
257
256
256
255
255
254
254
254
253
253
253
251
250
248
247
247
247
245
243
243
243
242
241
240
239
239
239
238
237
237
237
236
235
233
229
229
228
228
227
227
225
224
224
222
220
220
220
220
219
219
219
216
214
214
213
212
212
212
211
211
210
209
209
207
206
205
205
204
204
203
202
200
199
198
197
197
195
195
193
193
193
192
191
190
190
189
188
188
188
188
187
186
185
185
185
184
184
183
183
183
181
180
180
176
176
174
172
172
172
171
171
170
168
168
168
167
167
166
165
165
165
164
163
162
162
159
159
156
155
155
153
150
148
147
147
146
145
144
143
143
142
141
141
140
138
138
137
137
137
137
137
136
136
136
136
135
135
135
134
133
132
129
129
129
128
125
124
123
122
122
122
121
121
119
119
118
118
118
116
116
115
115
115
115
113
113
111
110
110
110
109
107
106
105
104
104
103
102
102
102
102
100
